cra-25/nwt/nwt.smt2
(declare-const Bracket_1 Real)
(declare-const Bracket_2 Real)
(declare-const Bracket_3 Real)
(declare-const Bracket_4 Real)
(declare-const Bracket_5 Real)
(declare-const FinalTaxes Real)
(declare-const Income Real)
(declare-const ite Real)

(assert (= Bracket_1 (* 0.064 (ite (<= Income 57375) Income 57375))))
(assert (= Bracket_2 (* 0.09 (ite (> Income 114750) (- 114750 57375) (ite (> Income 57375) (- Income 57375) 0)))))
(assert (= Bracket_3 (* 0.109 (ite (> Income 177882) (- 177882 114750) (ite (> Income 114750) (- Income 114750) 0)))))
(assert (= Bracket_4 (* 0.128 (ite (> Income 500000) (- 500000 177882) (ite (> Income 177882) (- Income 177882) 0)))))
(assert (= Bracket_5 (* 0.15 (ite (> Income 500000) (- Income 500000) 0))))
(assert (= FinalTaxes (+ Bracket_1 Bracket_2 Bracket_3 Bracket_4 Bracket_5)))
